(declare-const X String)
; rprpgbnrppb\x2fci\d\x2ElStopperHost\x3AHost\x3aclvompycem\x2fcen\.vcn
(assert (str.in_re X (re.++ (str.to_re "rprpgbnrppb/ci") (re.range "0" "9") (str.to_re ".lStopperHost:Host:clvompycem/cen.vcn\u{a}"))))
(check-sat)

(exit)
